
-10.85
-10.5
-10.1
-9.65
-8.95
-8.45
-7.0
-5.05
-3.2
-2.1
-1.75
-1.65
-1.55
-1.55
-1.55
-1.5
-1.5
-1.5
-1.4
-1.25
-1.25
-1.2
-1.2
-1.2
-1.2
-1.2
-1.2
-1.2
-1.2
-1.2
-1.2
-1.2
-1.2
-1.2
-1.2
-1.2
-1.2
-1.2
-1.2
-1.2
-1.2
-1.2
-10.8
-10.55
-10.2
-9.6
-9.2
-8.5
-7.15
-5.4
-3.1
-2.2
-1.9
-1.8
-1.75
-1.7
-1.55
-1.5
-1.4
-1.35
-1.25
-1.1
-1.05
-1.05
-1.05
-1.05
-1.05
-1.05
-1.05
-1.05
-1.05
-1.05
-1.05
-1.05
-1.05
-1.05
-1.05